c This file is generated by v2cnf
p cnf 550 1494
338 87 0
-338 -87 0
2 88 0
-2 -88 0
4 89 0
-4 -89 0
346 90 0
-346 -90 0
8 91 0
-8 -91 0
10 92 0
-10 -92 0
12 93 0
-12 -93 0
14 94 0
-14 -94 0
16 95 0
-16 -95 0
18 96 0
-18 -96 0
20 97 0
-20 -97 0
22 98 0
-22 -98 0
24 99 0
-24 -99 0
340 100 0
-340 -100 0
28 101 0
-28 -101 0
342 102 0
-342 -102 0
336 103 0
-336 -103 0
34 104 0
-34 -104 0
-87 -2 -105 0
87 105 0
2 105 0
3 88 106 0
-3 -106 0
-88 -106 0
5 88 107 0
-5 -107 0
-88 -107 0
-89 -346 -108 0
89 108 0
346 108 0
-91 -10 -109 0
91 109 0
10 109 0
-93 -14 -110 0
93 110 0
14 110 0
95 240 0
-95 -240 0
18 241 0
-18 -241 0
-240 -37 256 0
240 -256 0
37 -256 0
-241 -256 257 0
241 -257 0
256 -257 0
-95 -38 258 0
95 -258 0
38 -258 0
-241 -258 259 0
241 -259 0
258 -259 0
-240 -39 260 0
240 -260 0
39 -260 0
-18 -260 261 0
18 -261 0
260 -261 0
-95 -40 262 0
95 -262 0
40 -262 0
-18 -262 263 0
18 -263 0
262 -263 0
257 259 -264 0
-257 264 0
-259 264 0
261 264 -265 0
-261 265 0
-264 265 0
263 265 -111 0
-263 111 0
-265 111 0
-97 -22 -112 0
97 112 0
22 112 0
-99 -340 -113 0
99 113 0
340 113 0
101 242 0
-101 -242 0
342 243 0
-342 -243 0
-242 -41 266 0
242 -266 0
41 -266 0
-243 -266 267 0
243 -267 0
266 -267 0
-101 -42 268 0
101 -268 0
42 -268 0
-243 -268 269 0
243 -269 0
268 -269 0
-242 -43 270 0
242 -270 0
43 -270 0
-342 -270 271 0
342 -271 0
270 -271 0
-101 -44 272 0
101 -272 0
44 -272 0
-342 -272 273 0
342 -273 0
272 -273 0
267 269 -274 0
-267 274 0
-269 274 0
271 274 -275 0
-271 275 0
-274 275 0
273 275 -114 0
-273 114 0
-275 114 0
-103 -34 -115 0
103 115 0
34 115 0
339 90 116 0
-339 -116 0
-90 -116 0
9 90 117 0
-9 -117 0
-90 -117 0
11 92 118 0
-11 -118 0
-92 -118 0
13 92 119 0
-13 -119 0
-92 -119 0
337 94 120 0
-337 -120 0
-94 -120 0
17 94 121 0
-17 -121 0
-94 -121 0
19 96 122 0
-19 -122 0
-96 -122 0
344 96 123 0
-344 -123 0
-96 -123 0
23 98 124 0
-23 -124 0
-98 -124 0
341 98 125 0
-341 -125 0
-98 -125 0
345 100 126 0
-345 -126 0
-100 -126 0
29 100 127 0
-29 -127 0
-100 -127 0
31 244 0
-31 -244 0
102 245 0
-102 -245 0
-244 -45 276 0
244 -276 0
45 -276 0
-245 -276 277 0
245 -277 0
276 -277 0
-31 -46 278 0
31 -278 0
46 -278 0
-245 -278 279 0
245 -279 0
278 -279 0
-244 -47 280 0
244 -280 0
47 -280 0
-102 -280 281 0
102 -281 0
280 -281 0
-31 -48 282 0
31 -282 0
48 -282 0
-102 -282 283 0
102 -283 0
282 -283 0
277 279 -284 0
-277 284 0
-279 284 0
281 284 -285 0
-281 285 0
-284 285 0
283 285 -128 0
-283 128 0
-285 128 0
343 102 129 0
-343 -129 0
-102 -129 0
35 104 130 0
-35 -130 0
-104 -130 0
36 104 131 0
-36 -131 0
-104 -131 0
-105 -108 -109 -110 -111 -112 -113 -114 -115 132 0
105 -132 0
108 -132 0
109 -132 0
110 -132 0
111 -132 0
112 -132 0
113 -132 0
114 -132 0
115 -132 0
132 133 0
-132 -133 0
132 134 0
-132 -134 0
132 80 0
-132 -80 0
-133 -105 -135 0
133 105 -135 0
133 -105 135 0
-133 105 135 0
-133 -108 -136 0
133 108 -136 0
133 -108 136 0
-133 108 136 0
-133 -109 -137 0
133 109 -137 0
133 -109 137 0
-133 109 137 0
-133 -110 -138 0
133 110 -138 0
133 -110 138 0
-133 110 138 0
-133 -111 -139 0
133 111 -139 0
133 -111 139 0
-133 111 139 0
-133 -112 -140 0
133 112 -140 0
133 -112 140 0
-133 112 140 0
-338 -134 -141 0
338 141 0
134 141 0
-133 -113 -142 0
133 113 -142 0
133 -113 142 0
-133 113 142 0
-134 -4 -143 0
134 143 0
4 143 0
-133 -114 -144 0
133 114 -144 0
133 -114 144 0
-133 114 144 0
-134 -8 -145 0
134 145 0
8 145 0
133 246 0
-133 -246 0
115 247 0
-115 -247 0
-246 -49 286 0
246 -286 0
49 -286 0
-247 -286 287 0
247 -287 0
286 -287 0
-133 -50 288 0
133 -288 0
50 -288 0
-247 -288 289 0
247 -289 0
288 -289 0
-246 -51 290 0
246 -290 0
51 -290 0
-115 -290 291 0
115 -291 0
290 -291 0
-133 -52 292 0
133 -292 0
52 -292 0
-115 -292 293 0
115 -293 0
292 -293 0
287 289 -294 0
-287 294 0
-289 294 0
291 294 -295 0
-291 295 0
-294 295 0
293 295 -146 0
-293 146 0
-295 146 0
-134 -12 -147 0
134 147 0
12 147 0
-134 -16 -148 0
134 148 0
16 148 0
134 250 0
-134 -250 0
20 249 0
-20 -249 0
-250 -53 296 0
250 -296 0
53 -296 0
-249 -296 297 0
249 -297 0
296 -297 0
-134 -54 298 0
134 -298 0
54 -298 0
-249 -298 299 0
249 -299 0
298 -299 0
-250 -55 300 0
250 -300 0
55 -300 0
-20 -300 301 0
20 -301 0
300 -301 0
-134 -56 302 0
134 -302 0
56 -302 0
-20 -302 303 0
20 -303 0
302 -303 0
297 299 -304 0
-297 304 0
-299 304 0
301 304 -305 0
-301 305 0
-304 305 0
303 305 -149 0
-303 149 0
-305 149 0
134 250 0
-134 -250 0
24 251 0
-24 -251 0
-250 -57 306 0
250 -306 0
57 -306 0
-251 -306 307 0
251 -307 0
306 -307 0
-134 -58 308 0
134 -308 0
58 -308 0
-251 -308 309 0
251 -309 0
308 -309 0
-250 -59 310 0
250 -310 0
59 -310 0
-24 -310 311 0
24 -311 0
310 -311 0
-134 -60 312 0
134 -312 0
60 -312 0
-24 -312 313 0
24 -313 0
312 -313 0
307 309 -314 0
-307 314 0
-309 314 0
311 314 -315 0
-311 315 0
-314 315 0
313 315 -150 0
-313 150 0
-315 150 0
-134 -28 -151 0
134 151 0
28 151 0
-134 -336 -152 0
134 152 0
336 152 0
-135 -106 -153 0
135 153 0
106 153 0
-135 -107 -154 0
135 154 0
107 154 0
-136 -116 -155 0
136 155 0
116 155 0
-137 -118 -156 0
137 156 0
118 156 0
-138 -120 -157 0
138 157 0
120 157 0
-139 -122 -158 0
139 158 0
122 158 0
-140 -124 -159 0
140 159 0
124 159 0
-142 -126 -160 0
142 160 0
126 160 0
-144 -128 -161 0
144 161 0
128 161 0
-146 -130 -162 0
146 162 0
130 162 0
-136 -117 -163 0
136 163 0
117 163 0
-137 -119 -164 0
137 164 0
119 164 0
-138 -121 -165 0
138 165 0
121 165 0
-139 -123 -166 0
139 166 0
123 166 0
-140 -125 -167 0
140 167 0
125 167 0
-142 -127 -168 0
142 168 0
127 168 0
-144 -129 -169 0
144 169 0
129 169 0
-146 -131 -170 0
146 170 0
131 170 0
-153 -155 -156 -157 -158 -159 -160 -161 -162 171 0
153 -171 0
155 -171 0
156 -171 0
157 -171 0
158 -171 0
159 -171 0
160 -171 0
161 -171 0
162 -171 0
154 172 0
-154 -172 0
163 173 0
-163 -173 0
164 174 0
-164 -174 0
165 175 0
-165 -175 0
166 176 0
-166 -176 0
167 177 0
-167 -177 0
168 178 0
-168 -178 0
169 179 0
-169 -179 0
170 180 0
-170 -180 0
171 181 0
-171 -181 0
171 182 0
-171 -182 0
171 81 0
-171 -81 0
-181 -153 -183 0
181 153 -183 0
181 -153 183 0
-181 153 183 0
181 252 0
-181 -252 0
155 253 0
-155 -253 0
-252 -61 316 0
252 -316 0
61 -316 0
-253 -316 317 0
253 -317 0
316 -317 0
-181 -62 318 0
181 -318 0
62 -318 0
-253 -318 319 0
253 -319 0
318 -319 0
-252 -63 320 0
252 -320 0
63 -320 0
-155 -320 321 0
155 -321 0
320 -321 0
-181 -64 322 0
181 -322 0
64 -322 0
-155 -322 323 0
155 -323 0
322 -323 0
317 319 -324 0
-317 324 0
-319 324 0
321 324 -325 0
-321 325 0
-324 325 0
323 325 -184 0
-323 184 0
-325 184 0
-181 -156 -185 0
181 156 -185 0
181 -156 185 0
-181 156 185 0
-181 -157 -186 0
181 157 -186 0
181 -157 186 0
-181 157 186 0
3 254 0
-3 -254 0
182 255 0
-182 -255 0
-254 -65 326 0
254 -326 0
65 -326 0
-255 -326 327 0
255 -327 0
326 -327 0
-3 -66 328 0
3 -328 0
66 -328 0
-255 -328 329 0
255 -329 0
328 -329 0
-254 -67 330 0
254 -330 0
67 -330 0
-182 -330 331 0
182 -331 0
330 -331 0
-3 -68 332 0
3 -332 0
68 -332 0
-182 -332 333 0
182 -333 0
332 -333 0
327 329 -334 0
-327 334 0
-329 334 0
331 334 -335 0
-331 335 0
-334 335 0
333 335 -187 0
-333 187 0
-335 187 0
-181 -158 -188 0
181 158 -188 0
181 -158 188 0
-181 158 188 0
-182 -339 -189 0
182 189 0
339 189 0
-181 -159 -190 0
181 159 -190 0
181 -159 190 0
-181 159 190 0
-182 -11 -191 0
182 191 0
11 191 0
-181 -160 -192 0
181 160 -192 0
181 -160 192 0
-181 160 192 0
-182 -337 -193 0
182 193 0
337 193 0
-181 -161 -194 0
181 161 -194 0
181 -161 194 0
-181 161 194 0
-182 -19 -195 0
182 195 0
19 195 0
-181 -162 -196 0
181 162 -196 0
181 -162 196 0
-181 162 196 0
-182 -23 -197 0
182 197 0
23 197 0
-182 -345 -198 0
182 198 0
345 198 0
-182 -31 -199 0
182 199 0
31 199 0
-182 -35 -200 0
182 200 0
35 200 0
-183 -172 -201 0
183 201 0
172 201 0
-184 -173 -202 0
184 202 0
173 202 0
-185 -174 -203 0
185 203 0
174 203 0
-186 -175 -204 0
186 204 0
175 204 0
-188 -176 -205 0
188 205 0
176 205 0
-190 -177 -206 0
190 206 0
177 206 0
-192 -178 -207 0
192 207 0
178 207 0
-194 -179 -208 0
194 208 0
179 208 0
-196 -180 -209 0
196 209 0
180 209 0
-201 -202 -203 -204 -205 -206 -207 -208 -209 210 0
201 -210 0
202 -210 0
203 -210 0
204 -210 0
205 -210 0
206 -210 0
207 -210 0
208 -210 0
209 -210 0
210 211 0
-210 -211 0
210 82 0
-210 -82 0
-5 -211 -212 0
5 212 0
211 212 0
-211 -9 -213 0
211 213 0
9 213 0
-211 -13 -214 0
211 214 0
13 214 0
-211 -17 -215 0
211 215 0
17 215 0
-211 -344 -216 0
211 216 0
344 216 0
-211 -341 -217 0
211 217 0
341 217 0
-211 -29 -218 0
211 218 0
29 218 0
-211 -343 -219 0
211 219 0
343 219 0
-211 -36 -220 0
211 220 0
36 220 0
-2 -141 -187 -212 -221 0
2 221 0
141 221 0
187 221 0
212 221 0
-143 -189 -213 -346 -222 0
143 222 0
189 222 0
213 222 0
346 222 0
-145 -191 -214 -10 -223 0
145 223 0
191 223 0
214 223 0
10 223 0
-147 -193 -215 -14 -224 0
147 224 0
193 224 0
215 224 0
14 224 0
-148 -195 -216 -18 -225 0
148 225 0
195 225 0
216 225 0
18 225 0
-149 -197 -217 -22 -226 0
149 226 0
197 226 0
217 226 0
22 226 0
-150 -198 -218 -340 -227 0
150 227 0
198 227 0
218 227 0
340 227 0
-151 -199 -219 -342 -228 0
151 228 0
199 228 0
219 228 0
342 228 0
-152 -200 -220 -34 -229 0
152 229 0
200 229 0
220 229 0
34 229 0
221 230 0
-221 -230 0
-222 -223 -224 -225 -226 -227 -228 -229 231 0
222 -231 0
223 -231 0
224 -231 0
225 -231 0
226 -231 0
227 -231 0
228 -231 0
229 -231 0
224 232 0
-224 -232 0
226 233 0
-226 -233 0
227 234 0
-227 -234 0
228 235 0
-228 -235 0
230 231 83 0
-230 -83 0
-231 -83 0
-223 -232 -236 0
223 236 0
232 236 0
-223 -224 -233 -225 -237 0
223 237 0
224 237 0
233 237 0
225 237 0
-225 -224 -234 -238 0
225 238 0
224 238 0
234 238 0
-223 -224 -227 -235 -239 0
223 239 0
224 239 0
227 239 0
235 239 0
-222 -223 -236 -225 -84 0
222 84 0
223 84 0
236 84 0
225 84 0
-222 -223 -237 -238 -85 0
222 85 0
223 85 0
237 85 0
238 85 0
-222 -236 -237 -239 -86 0
222 86 0
236 86 0
237 86 0
239 86 0
-69 -1 -338 0
69 1 -338 0
69 -1 338 0
-69 1 338 0
-70 -6 -346 0
70 6 -346 0
70 -6 346 0
-70 6 346 0
-71 -26 -340 0
71 26 -340 0
71 -26 340 0
-71 26 340 0
-72 -30 -342 0
72 30 -342 0
72 -30 342 0
-72 30 342 0
-73 -32 -336 0
73 32 -336 0
73 -32 336 0
-73 32 336 0
-74 -7 -339 0
74 7 -339 0
74 -7 339 0
-74 7 339 0
-75 -15 -337 0
75 15 -337 0
75 -15 337 0
-75 15 337 0
-76 -21 -344 0
76 21 -344 0
76 -21 344 0
-76 21 344 0
-77 -25 -341 0
77 25 -341 0
77 -25 341 0
-77 25 341 0
-78 -27 -345 0
78 27 -345 0
78 -27 345 0
-78 27 345 0
-79 -33 -343 0
79 33 -343 0
79 -33 343 0
-79 33 343 0
347 390 0
-347 -390 0
348 391 0
-348 -391 0
350 392 0
-350 -392 0
352 393 0
-352 -393 0
354 394 0
-354 -394 0
356 395 0
-356 -395 0
358 396 0
-358 -396 0
360 397 0
-360 -397 0
362 398 0
-362 -398 0
364 399 0
-364 -399 0
366 400 0
-366 -400 0
368 401 0
-368 -401 0
370 402 0
-370 -402 0
372 403 0
-372 -403 0
374 404 0
-374 -404 0
376 405 0
-376 -405 0
378 406 0
-378 -406 0
380 407 0
-380 -407 0
-390 -348 -408 0
390 408 0
348 408 0
349 391 409 0
-349 -409 0
-391 -409 0
351 391 410 0
-351 -410 0
-391 -410 0
-392 -352 -411 0
392 411 0
352 411 0
-394 -356 -412 0
394 412 0
356 412 0
-396 -360 -413 0
396 413 0
360 413 0
-398 -364 -414 0
398 414 0
364 414 0
-400 -368 -415 0
400 415 0
368 415 0
-402 -372 -416 0
402 416 0
372 416 0
-404 -376 -417 0
404 417 0
376 417 0
-406 -380 -418 0
406 418 0
380 418 0
353 393 419 0
-353 -419 0
-393 -419 0
355 393 420 0
-355 -420 0
-393 -420 0
357 395 421 0
-357 -421 0
-395 -421 0
359 395 422 0
-359 -422 0
-395 -422 0
361 397 423 0
-361 -423 0
-397 -423 0
363 397 424 0
-363 -424 0
-397 -424 0
365 399 425 0
-365 -425 0
-399 -425 0
367 399 426 0
-367 -426 0
-399 -426 0
369 401 427 0
-369 -427 0
-401 -427 0
371 401 428 0
-371 -428 0
-401 -428 0
373 403 429 0
-373 -429 0
-403 -429 0
375 403 430 0
-375 -430 0
-403 -430 0
377 405 431 0
-377 -431 0
-405 -431 0
379 405 432 0
-379 -432 0
-405 -432 0
381 407 433 0
-381 -433 0
-407 -433 0
382 407 434 0
-382 -434 0
-407 -434 0
-408 -411 -412 -413 -414 -415 -416 -417 -418 435 0
408 -435 0
411 -435 0
412 -435 0
413 -435 0
414 -435 0
415 -435 0
416 -435 0
417 -435 0
418 -435 0
435 436 0
-435 -436 0
435 437 0
-435 -437 0
435 383 0
-435 -383 0
-436 -408 -438 0
436 408 -438 0
436 -408 438 0
-436 408 438 0
-436 -411 -439 0
436 411 -439 0
436 -411 439 0
-436 411 439 0
-436 -412 -440 0
436 412 -440 0
436 -412 440 0
-436 412 440 0
-436 -413 -441 0
436 413 -441 0
436 -413 441 0
-436 413 441 0
-436 -414 -442 0
436 414 -442 0
436 -414 442 0
-436 414 442 0
-436 -415 -443 0
436 415 -443 0
436 -415 443 0
-436 415 443 0
-347 -437 -444 0
347 444 0
437 444 0
-436 -416 -445 0
436 416 -445 0
436 -416 445 0
-436 416 445 0
-437 -350 -446 0
437 446 0
350 446 0
-436 -417 -447 0
436 417 -447 0
436 -417 447 0
-436 417 447 0
-437 -354 -448 0
437 448 0
354 448 0
-436 -418 -449 0
436 418 -449 0
436 -418 449 0
-436 418 449 0
-437 -358 -450 0
437 450 0
358 450 0
-437 -362 -451 0
437 451 0
362 451 0
-437 -366 -452 0
437 452 0
366 452 0
-437 -370 -453 0
437 453 0
370 453 0
-437 -374 -454 0
437 454 0
374 454 0
-437 -378 -455 0
437 455 0
378 455 0
-438 -409 -456 0
438 456 0
409 456 0
-438 -410 -457 0
438 457 0
410 457 0
-439 -419 -458 0
439 458 0
419 458 0
-440 -421 -459 0
440 459 0
421 459 0
